
# Using pARTn with FIRE minimization 
# File inspired from the repo MAMMASMIAS, 2022


# ---------- Initialize Simulation --------------------- 
clear 
units       metal 
dimension   3 
boundary    p p p 
atom_style  atomic 
atom_modify sort 0 1


# ---------- Read one of the input structure files --------------------- 

##
## smaller simulation box, single vacancy defect
##

read_data   conf.sw


##
## larger simulation box, single vacancy defect
## NOTE: if you use the larger box, make according change also in artn.in
##

#read_data   conf_big.sw


# ---------- Define Interatomic Potential --------------------- 
pair_style   sw 
pair_coeff   * * Si.sw Si

mass        1  28.0855

neighbor     2.0 bin 
neigh_modify delay 10 check yes 

# balance atoms per cpu
comm_style tiled
balance 1.1 rcb

# ----------- OUTPUT DUMP
thermo 1
thermo_style custom step pe

dump dump_id all yaml 1 dump.yaml id element x y z fx fy fz 
dump_modify dump_id thermo yes
dump_modify dump_id element Si


#displace_atoms	all random 0.05 0.05 0.05 1258475

# ----------- ARTn
plugin   load   /Users/brunorousseau/sources/artn-plugin/build/libartn.dylib

fix             10 all artn dmax 5.0
#fix             10 all artn alpha0 0.1 alphashrink 0.99 dtshrink 0.5 dmax 0.5 tmax 20 tmin 0.02

timestep 0.001


# ---------- Run Minimization --------------------- 
reset_timestep 0 
#fix 1 all box/relax iso 0.0 vmax 0.001

min_style fire 

#min_modify: dmax or delaystep or dtgrow or dtshrink or alpha0 or alphahrink or...
#            tmax or tmin or halfstepback or initialdelay or vdfmax or line or...
#            norm or discrete_factor or integrator or tmax  
#            alpha_damp: does not work anymore


## ------ launch
minimize 1e-3 1e-5 5000 10000 

