log log.lammps

units           metal
atom_style      atomic
atom_modify     map array

lattice         diamond 5.43
region          simbox block 0 ${S} 0 ${S} 0 ${S}
create_box      1 simbox
create_atoms    1 region simbox

mass 1 28.0855

group Si type 1

pair_style sw
pair_coeff * * ${SW_PATH} Si


velocity all create ${T} ${SEED}

dump dump_id all yaml 1 dump.${T}-${S}.yaml id element x y z fx fy fz
dump_modify dump_id element Si

thermo_style yaml
thermo 1
#==========================Output files========================

fix 1 all nvt temp ${T} ${T} 0.01
run ${STEP}
unfix 1
