log log.si-${T}-${S}.lammps

units           metal
atom_style      atomic
atom_modify     map array

lattice         diamond 5.43
region          simbox block    0 ${S} 0 ${S} 0 ${S}
create_box      1 simbox
create_atoms    1 region simbox

#read_dump ${DUMP} ${STEP} x y z vx vy vz fx fy fz box yes replace no purge yes add yes

mass 1 28.0855

group Si type 1

pair_style sw
pair_coeff * * data/si.sw Si

velocity   all create ${T} 62177

dump 1 all yaml 1 dump.si-${T}-${S}.yaml id type x y z fx fy fz

thermo_style yaml
thermo 1
#==========================Output files========================

fix 1 all nvt temp ${T} ${T} 0.01
run ${STEP}
unfix 1
